============================[ Problem Statistics ]=============================|                                                                             ||  Number of variables:          4242                                         ||  Number of clauses:            9751                                         ||  Parse time:                   0.16 s                                       ||                                                                             |============================[ Search Statistics ]==============================| Conflicts |          ORIGINAL         |          LEARNT          | Progress ||           |    Vars  Clauses Literals |    Limit  Clauses Lit/Cl |          |==============================================================================================================================================================restarts              : 1conflicts             : 93             (344 /sec)decisions             : 179            (0.00 % random) (663 /sec)propagations          : 8245           (30537 /sec)conflict literals     : 4850           (95.99 % deleted)CPU time              : 0.27 sSATISFIABLE